(declare-fun temp1726_1 () (_ BitVec 64))
(declare-fun temp1726_2 () (_ BitVec 64))
(declare-fun var70396 () (_ BitVec 64))
(declare-fun k!0 () Bool)
(declare-fun ARGNAME_x_NAMEEND_DIM () (_ BitVec 64))
(declare-fun temp1726_3 () (_ BitVec 64))
(declare-fun var65762 () (_ BitVec 64))
(declare-fun temp1726_4 () (_ BitVec 64))
(declare-fun temp1726_5 () (_ BitVec 64))
(declare-fun ARGNAME_x_NAMEEND_DIMSIZE () (Array (_ BitVec 64) (_ BitVec 64)))
(declare-fun temp1726_6 () (_ BitVec 64))
(declare-fun temp1726_7 () (_ BitVec 64))
(declare-fun temp1726_8 () (_ BitVec 64))
(declare-fun temp1726_9 () (_ BitVec 64))
(declare-fun temp1726_10 () (_ BitVec 64))
(declare-fun temp1726_11 () (_ BitVec 64))
(declare-fun temp1726_12 () (_ BitVec 64))
(declare-fun temp1726_13 () (_ BitVec 64))
(declare-fun temp1726_14 () (_ BitVec 64))
(declare-fun temp1726_15 () (_ BitVec 64))
(declare-fun temp1726_16 () (_ BitVec 64))
(declare-fun temp1726_17 () (_ BitVec 64))
(declare-fun temp1726_18 () (_ BitVec 64))
(declare-fun temp1726_19 () (_ BitVec 64))
(declare-fun temp1726_20 () (_ BitVec 64))
(declare-fun temp1726_21 () (_ BitVec 64))
(declare-fun temp1726_22 () (_ BitVec 64))
(declare-fun temp1726_23 () (_ BitVec 64))
(declare-fun temp1726_24 () (_ BitVec 64))
(declare-fun var70398 () (_ BitVec 64))
(declare-fun temp1726_25 () (_ BitVec 64))
(declare-fun temp1726_26 () (_ BitVec 64))
(declare-fun ARGNAME_y_NAMEEND_DIMSIZE () (Array (_ BitVec 64) (_ BitVec 64)))
(declare-fun temp1726_27 () (_ BitVec 64))
(declare-fun temp1726_28 () (_ BitVec 64))
(declare-fun temp1726_29 () (_ BitVec 64))
(declare-fun temp1726_30 () (_ BitVec 64))
(declare-fun temp1726_31 () (_ BitVec 64))
(declare-fun temp1726_32 () (_ BitVec 64))
(declare-fun temp1726_33 () (_ BitVec 64))
(declare-fun temp1726_34 () (_ BitVec 64))
(declare-fun temp1726_35 () (_ BitVec 64))
(declare-fun temp1726_36 () (_ BitVec 64))
(declare-fun temp1726_37 () (_ BitVec 64))
(declare-fun temp1726_38 () (_ BitVec 64))
(declare-fun temp1726_39 () (_ BitVec 64))
(declare-fun temp1726_40 () (_ BitVec 64))
(declare-fun temp1726_41 () (_ BitVec 64))
(declare-fun temp1726_42 () (_ BitVec 64))
(declare-fun temp1726_43 () (_ BitVec 64))
(declare-fun var70374 () (_ BitVec 64))
(declare-fun ARGNAME_y_NAMEEND_DIM () (_ BitVec 64))
(declare-fun temp1726_44 () (_ BitVec 64))
(declare-fun temp1726_45 () (_ BitVec 64))
(declare-fun var70399 () (_ BitVec 64))
(declare-fun var70400 () (_ BitVec 64))
(declare-fun temp1726_46 () (_ BitVec 64))
(declare-fun temp1726_48 () (_ BitVec 64))
(declare-fun temp1726_47 () (_ BitVec 64))
(declare-fun temp1726_49 () (_ BitVec 64))
(declare-fun var526834 () (_ BitVec 64))
(declare-fun var526836 () (_ BitVec 64))
(declare-fun var592572 () (_ BitVec 64))
(declare-fun var658116 () (_ BitVec 64))
(declare-fun temp1726_50 () (_ BitVec 64))
(declare-fun temp1726_51 () (_ BitVec 64))
(declare-fun temp1726_52 () (_ BitVec 64))
(declare-fun temp1726_53 () (_ BitVec 64))
(declare-fun var70423 () (_ BitVec 64))
(declare-fun temp1726_55 () (_ BitVec 64))
(declare-fun temp1726_54 () (_ BitVec 64))
(declare-fun temp1726_57 () (_ BitVec 64))
(declare-fun temp1726_56 () (_ BitVec 64))
(declare-fun temp1726_58 () (_ BitVec 64))
(declare-fun var2360614 () (_ BitVec 64))
(declare-fun temp1726_59 () (_ BitVec 64))
(declare-fun var2360648 () (_ BitVec 64))
(declare-fun temp1726_60 () (_ BitVec 64))
(declare-fun temp1726_62 () (_ BitVec 64))
(declare-fun temp1726_61 () (_ BitVec 64))
(declare-fun temp1726_63 () (_ BitVec 64))
(declare-fun var2753830 () (_ BitVec 64))
(declare-fun temp1726_64 () (_ BitVec 64))
(declare-fun var2753864 () (_ BitVec 64))
(declare-fun temp1726_65 () (_ BitVec 64))
(assert (= temp1726_1 #x0000000000000001))
(assert (= var70396
   (ite (= ARGNAME_x_NAMEEND_DIM temp1726_1)
        #x0000000000000001
        #x0000000000000000)))
(assert (= temp1726_2 #x0000000000000001))
(assert (= var70396 temp1726_2))
(assert (= temp1726_3 #x0000000000000000))
(assert (= var65762 temp1726_3))
(assert (= temp1726_4 #x0000000000000000))
(assert (= temp1726_5 temp1726_4))
(assert (= temp1726_6 (select ARGNAME_x_NAMEEND_DIMSIZE temp1726_5)))
(assert (= temp1726_7 #x0000000000000001))
(assert (= temp1726_8 temp1726_7))
(assert (= temp1726_9 (select ARGNAME_x_NAMEEND_DIMSIZE temp1726_8)))
(assert (= temp1726_10 #x0000000000000002))
(assert (= temp1726_11 temp1726_10))
(assert (= temp1726_12 (select ARGNAME_x_NAMEEND_DIMSIZE temp1726_11)))
(assert (= temp1726_13 #x0000000000000003))
(assert (= temp1726_14 temp1726_13))
(assert (= temp1726_15 (select ARGNAME_x_NAMEEND_DIMSIZE temp1726_14)))
(assert (= temp1726_16 #x0000000000000004))
(assert (= temp1726_17 temp1726_16))
(assert (= temp1726_18 (select ARGNAME_x_NAMEEND_DIMSIZE temp1726_17)))
(assert (= temp1726_19 #x0000000000000005))
(assert (= temp1726_20 temp1726_19))
(assert (= temp1726_21 (select ARGNAME_x_NAMEEND_DIMSIZE temp1726_20)))
(assert (= temp1726_22 #x0000000000000000))
(assert (= temp1726_23
   (ite (bvslt var65762 temp1726_22)
        (bvadd ARGNAME_x_NAMEEND_DIM var65762)
        var65762)))
(assert (= temp1726_24 (select ARGNAME_x_NAMEEND_DIMSIZE temp1726_23)))
(assert (= var70398 temp1726_24))
(assert (bvslt (ite (bvslt var65762 temp1726_22)
            (bvadd ARGNAME_x_NAMEEND_DIM var65762)
            var65762)
       ARGNAME_x_NAMEEND_DIM))
(assert (= temp1726_25 #x0000000000000000))
(assert (= temp1726_26 temp1726_25))
(assert (= temp1726_27 (select ARGNAME_y_NAMEEND_DIMSIZE temp1726_26)))
(assert (= temp1726_28 #x0000000000000001))
(assert (= temp1726_29 temp1726_28))
(assert (= temp1726_30 (select ARGNAME_y_NAMEEND_DIMSIZE temp1726_29)))
(assert (= temp1726_31 #x0000000000000002))
(assert (= temp1726_32 temp1726_31))
(assert (= temp1726_33 (select ARGNAME_y_NAMEEND_DIMSIZE temp1726_32)))
(assert (= temp1726_34 #x0000000000000003))
(assert (= temp1726_35 temp1726_34))
(assert (= temp1726_36 (select ARGNAME_y_NAMEEND_DIMSIZE temp1726_35)))
(assert (= temp1726_37 #x0000000000000004))
(assert (= temp1726_38 temp1726_37))
(assert (= temp1726_39 (select ARGNAME_y_NAMEEND_DIMSIZE temp1726_38)))
(assert (= temp1726_40 #x0000000000000005))
(assert (= temp1726_41 temp1726_40))
(assert (= temp1726_42 (select ARGNAME_y_NAMEEND_DIMSIZE temp1726_41)))
(assert (= temp1726_43 #x0000000000000000))
(assert (= temp1726_44
   (ite (bvslt var70374 temp1726_43)
        (bvadd ARGNAME_y_NAMEEND_DIM var70374)
        var70374)))
(assert (= temp1726_45 (select ARGNAME_y_NAMEEND_DIMSIZE temp1726_44)))
(assert (= var70399 temp1726_45))
(assert (bvslt (ite (bvslt var70374 temp1726_43)
            (bvadd ARGNAME_y_NAMEEND_DIM var70374)
            var70374)
       ARGNAME_y_NAMEEND_DIM))
(assert (= var70400 (ite (= var70398 var70399) #x0000000000000001 #x0000000000000000)))
(assert (= temp1726_46 #x0000000000000001))
(assert (= var70400 temp1726_46))
(assert (= temp1726_48 #x0000000000000001))
(assert (= temp1726_47 temp1726_48))
(assert (= temp1726_49 #x0000000000000005))
(assert (= var526834 temp1726_49))
(assert (= var526836 var526834))
(assert (= var592572 var526836))
(assert (= var658116 var592572))
(assert (= temp1726_50 #x0000000000000000))
(assert (= var65762 temp1726_50))
(assert (= temp1726_51 #x0000000000000000))
(assert (= temp1726_52
   (ite (bvslt var65762 temp1726_51)
        (bvadd ARGNAME_x_NAMEEND_DIM var65762)
        var65762)))
(assert (= temp1726_53 (select ARGNAME_x_NAMEEND_DIMSIZE temp1726_52)))
(assert (= var70423 temp1726_53))
(assert (bvslt (ite (bvslt var65762 temp1726_51)
            (bvadd ARGNAME_x_NAMEEND_DIM var65762)
            var65762)
       ARGNAME_x_NAMEEND_DIM))
(assert (= temp1726_55 #x0000000000000000))
(assert (= temp1726_54 temp1726_55))
(assert (= temp1726_57 #xffffffffffffffff))
(assert (= temp1726_56 temp1726_57))
(assert (= temp1726_58 #x0000000000000001))
(assert (= var2360614 temp1726_58))
(assert (= temp1726_59 #x0000000000000000))
(assert (= var2360648 temp1726_59))
(assert (= temp1726_60 #x0000000000000000))
(assert (= var2360648 temp1726_60))
(assert (= temp1726_62 #x0000000000000001))
(assert (= temp1726_61 temp1726_62))
(assert (= temp1726_63 #x0000000000000001))
(assert (= var2753830 temp1726_63))
(assert (= temp1726_64 #x0000000000000000))
(assert (= var2753864 temp1726_64))
(assert (= temp1726_65 #x0000000000000000))
(assert (= var2753864 temp1726_65))
(model-add temp1726_1 () (_ BitVec 64) #x0000000000000001)
(model-add temp1726_2 () (_ BitVec 64) #x0000000000000001)
(model-add var70396 () (_ BitVec 64) #x0000000000000001)
(model-del k!0)
(model-add ARGNAME_x_NAMEEND_DIM
           ()
           (_ BitVec 64)
           (ite k!0 #x0000000000000001 (bvnot #x0000000000000001)))





